% number of games is 38

num = 38;
cap = 5;
refill = 2;
fun = [-17, -5, -13, 1, 14, -5, -19, -4, -11, -15, 9, 12, 19, 16, 6, 0, -6, 15, -1, 16, 14, 10, -8, -6, -13, -20, 6, -16, 17, 20, 17, -10, -20, 7, 7, -7, 9, -10];
